10
0, 702, 811, 674, 351, 46, 551, 234, 449, 656
702, 0, 393, 527, 946, 722, 262, 813, 367, 404
811, 393, 0, 900, 1136, 808, 612, 1000, 362, 169
674, 527, 900, 0, 701, 718, 292, 615, 688, 851
351, 946, 1136, 701, 0, 378, 724, 136, 777, 992
46, 722, 808, 718, 378, 0, 584, 270, 448, 649
551, 262, 612, 292, 724, 584, 0, 600, 412, 560
234, 813, 1000, 615, 136, 270, 600, 0, 642, 858
449, 367, 362, 688, 777, 448, 412, 642, 0, 217
656, 404, 169, 851, 992, 649, 560, 858, 217, 0
